3
32
0 4 21 30 31 32 41 40 47 46 55 64 73 83 85 94 93 92 91 90 82 81 72 63 54 37 29 20 12 11 10 1
30
0 19 39 48 59 57 58 66 67 76 87 79 71 80 89 98 97 88 96 95 86 84 75 74 65 56 45 36 27 9
39
0 18 28 38 49 50 51 52 60 69 68 77 78 70 61 62 53 44 43 42 33 34 35 26 25 24 23 22 14 15 16 17 8 7 6 5 13 3 2
